
List of user-set options:

                                    Name   Value                used
                   hessian_approximation = limited-memory        yes
                           linear_solver = mumps                 yes
                  ma57_automatic_scaling = yes                    no
                                max_iter = 300                   yes
                             mu_strategy = adaptive              yes
                             output_file = Goddard-Rocket-ProblemIPOPTinfo.txt  yes
                             print_level = 5                     yes
                      print_user_options = yes                   yes
                                     tol = 1e-007                yes
This is Ipopt version 3.11.0, running with linear solver mumps.

Number of nonzeros in equality constraint Jacobian...:    18452
Number of nonzeros in inequality constraint Jacobian.:      421
Number of nonzeros in Lagrangian Hessian.............:        0

Total number of variables............................:     1898
                     variables with only lower bounds:        0
                variables with lower and upper bounds:     1898
                     variables with only upper bounds:        0
Total number of equality constraints.................:     1688
Total number of inequality constraints...............:      212
        inequality constraints with only lower bounds:        0
   inequality constraints with lower and upper bounds:      212
        inequality constraints with only upper bounds:        0

iter    objective    inf_pr   inf_du lg(mu)  ||d||  lg(rg) alpha_du alpha_pr  ls
   0 2.9074638e+004 2.52e-001 1.00e+002   0.0 0.00e+000    -  0.00e+000 0.00e+000   0
   1 2.9063378e+004 2.49e-001 2.18e+002  -0.1 1.50e+000   4.0 9.21e-001 1.46e-002h  1
   2 2.9035275e+004 2.36e-001 2.07e+002  -6.1 2.54e+000    -  2.51e-002 5.25e-002h  1
   3 2.9034614e+004 2.35e-001 7.96e+003  -6.1 1.79e+000    -  3.08e-001 3.53e-003h  1
   4 2.9084848e+004 1.05e-001 3.97e+004   1.3 3.46e+000    -  3.17e-002 5.55e-001f  1
   5 2.9051856e+004 3.85e-002 1.48e+004   0.1 5.53e-001    -  7.59e-001 6.31e-001h  1
   6 2.8769482e+004 3.72e-002 6.65e+005   2.2 1.74e+001    -  1.75e-001 3.57e-002f  1
   7 2.8369839e+004 7.57e-003 1.02e+005   1.8 1.17e+000    -  2.86e-001 8.46e-001f  1
   8 2.7331696e+004 9.33e-003 9.80e+004   3.1 3.92e+001    -  5.44e-002 5.55e-002f  1
   9 2.6771034e+004 1.30e-002 6.88e+004   3.1 1.34e+001    -  2.23e-001 2.07e-001f  1
iter    objective    inf_pr   inf_du lg(mu)  ||d||  lg(rg) alpha_du alpha_pr  ls
  10 2.6942210e+004 1.02e-002 4.66e+006   2.8 6.61e+000    -  1.00e+000 2.13e-001h  1
  11 2.7044714e+004 9.17e-003 7.77e+007   3.1 5.01e+000    -  3.40e-001 1.08e-001h  1
  12 2.7049899e+004 9.15e-003 2.95e+009   3.1 4.52e+000    -  2.41e-001 2.33e-003h  1
  13 2.7385548e+004 8.97e-003 2.25e+009   3.1 3.23e+001    -  1.40e-002 1.95e-002h  1
  14 2.7431084e+004 8.94e-003 1.01e+010   2.9 1.10e+002    -  1.06e-002 2.99e-003h  1
  15 2.7506392e+004 8.90e-003 1.90e+010   2.9 1.12e+002    -  8.45e-003 4.28e-003h  1
  16 2.7534300e+004 8.89e-003 4.72e+010   2.9 9.09e+001    -  8.78e-003 1.53e-003h  1
  17 2.7552535e+004 8.88e-003 5.35e+010   2.9 1.94e+002    -  1.74e-003 1.04e-003h  1
  18 2.7564648e+004 8.87e-003 5.57e+010   2.9 6.58e+002    -  8.53e-004 6.90e-004h  1
  19 2.7567930e+004 8.87e-003 6.48e+010   2.9 3.60e+002    -  6.44e-004 1.89e-004h  1
iter    objective    inf_pr   inf_du lg(mu)  ||d||  lg(rg) alpha_du alpha_pr  ls
  20 2.7588711e+004 8.86e-003 3.82e+010   2.9 2.33e+002    -  1.02e-005 1.18e-003h  1
  21 2.7598308e+004 8.86e-003 4.37e+010   2.9 4.76e+002    -  7.43e-004 5.34e-004h  1
  22 2.7605261e+004 8.85e-003 3.52e+010   2.9 8.88e+002    -  6.69e-005 3.77e-004h  1
  23 2.7607348e+004 8.85e-003 5.87e+010   2.9 3.97e+002    -  8.26e-004 1.13e-004h  1
  24 2.7614904e+004 8.85e-003 5.06e+010   2.9 1.74e+003    -  1.68e-004 4.04e-004h  1
  25 2.7617058e+004 8.85e-003 8.90e+010   2.9 5.56e+002    -  9.13e-004 1.16e-004h  1
  26 2.7627052e+004 8.84e-003 6.43e+010   2.9 9.17e+002    -  1.22e-004 5.32e-004h  1
  27 2.7632942e+004 8.84e-003 6.33e+010   2.9 1.27e+003    -  2.94e-004 3.11e-004h  1
  28 2.7633523e+004 8.84e-003 8.94e+010   2.9 6.20e+002    -  3.05e-004 3.09e-005h  1
  29 2.7638100e+004 8.84e-003 9.09e+010   2.9 9.81e+002    -  2.57e-004 2.44e-004h  1
iter    objective    inf_pr   inf_du lg(mu)  ||d||  lg(rg) alpha_du alpha_pr  ls
  30 2.7641263e+004 8.84e-003 8.61e+010   2.9 5.03e+002    -  1.49e-004 1.70e-004h  1
  31 2.7645431e+004 8.83e-003 3.40e+010   2.9 1.34e+003    -  3.12e-006 2.23e-004h  1
  32 2.7646530e+004 8.83e-003 5.82e+010   2.9 1.79e+003    -  1.54e-004 5.87e-005h  1
  33 2.7647109e+004 8.83e-003 6.37e+010   2.9 2.27e+003    -  5.61e-005 3.07e-005h  1
  34 2.7647563e+004 8.83e-003 6.87e+010   2.9 2.15e+003    -  3.58e-005 2.45e-005h  1
  35 2.7652267e+004 8.83e-003 2.96e+010   2.9 3.16e+003    -  1.95e-006 2.48e-004h  1
  36r2.7652267e+004 8.83e-003 9.99e+002   2.9 0.00e+000    -  0.00e+000 4.27e-007R  5
  37r2.7652430e+004 1.53e-002 5.10e+001  -3.2 1.51e+000    -  9.49e-001 7.45e-001f  1
  38 2.7652132e+004 1.53e-002 1.00e+002  -0.7 1.19e+001    -  2.04e-004 2.34e-004f  1
  39 2.7645466e+004 1.51e-002 4.45e+005   0.4 4.11e+001    -  6.75e-005 1.08e-002f  1
iter    objective    inf_pr   inf_du lg(mu)  ||d||  lg(rg) alpha_du alpha_pr  ls
  40 2.7646467e+004 1.50e-002 4.23e+005   0.6 4.08e+000   3.8 1.00e+000 6.69e-003h  1
  41 2.7644828e+004 1.47e-002 2.69e+005   2.6 4.56e+000   3.4 1.26e-001 2.49e-002f  1
  42 2.7512668e+004 1.36e-002 2.86e+005   2.7 1.23e+001    -  6.72e-002 7.64e-002f  1
  43 2.6867766e+004 1.18e-002 3.20e+005   3.1 2.69e+001    -  6.61e-002 1.29e-001f  1
  44 2.8815536e+004 8.24e-003 1.11e+005   2.2 1.08e+001    -  6.71e-001 4.04e-001H  1
  45 3.1312017e+004 6.45e-003 5.04e+005   1.5 5.24e+000    -  4.93e-001 7.81e-001H  1
  46 3.1273480e+004 6.38e-003 1.59e+007   1.5 6.05e+000    -  9.08e-002 1.07e-002h  1
  47 3.1238004e+004 6.31e-003 1.09e+008   1.5 6.02e+000   2.8 5.91e-002 1.04e-002h  1
  48 3.1245358e+004 6.31e-003 3.20e+008   1.5 5.71e+001    -  3.01e-003 6.24e-004h  1
  49 3.1305172e+004 6.28e-003 4.23e+008   1.5 8.41e+001    -  5.20e-003 4.04e-003h  1
iter    objective    inf_pr   inf_du lg(mu)  ||d||  lg(rg) alpha_du alpha_pr  ls
  50 3.1358343e+004 6.26e-003 8.78e+008   1.5 6.13e+001    -  8.37e-003 3.52e-003h  1
  51 3.1426712e+004 6.23e-003 9.60e+008   1.5 8.30e+001    -  6.49e-003 4.46e-003h  1
  52 3.1435763e+004 6.23e-003 1.97e+009   1.5 1.37e+002    -  3.68e-003 6.31e-004h  1
  53 3.1450124e+004 6.22e-003 2.03e+009   1.5 4.01e+002    -  1.22e-003 9.94e-004h  1
  54 3.1462493e+004 6.22e-003 2.29e+009   1.5 2.97e+002    -  1.61e-003 8.74e-004h  1
  55 3.1463111e+004 6.22e-003 2.83e+009   1.5 5.15e+002    -  1.01e-003 4.45e-005h  1
  56 3.1471555e+004 6.21e-003 3.20e+009   1.5 3.69e+002    -  1.16e-003 6.09e-004h  2
  57 3.1471892e+004 6.21e-003 3.88e+009   1.5 4.62e+002    -  9.26e-004 2.39e-005h  6
  58 3.1480550e+004 6.21e-003 3.88e+009   1.5 4.01e+002    -  5.92e-004 5.92e-004s 12
  59r3.1480550e+004 6.21e-003 1.00e+003   1.5 0.00e+000    -  0.00e+000 0.00e+000R  1
iter    objective    inf_pr   inf_du lg(mu)  ||d||  lg(rg) alpha_du alpha_pr  ls
  60r3.1472624e+004 7.30e-003 6.54e+003   0.3 1.45e+000    -  9.07e-001 1.40e-001f  1
  61 3.1408081e+004 7.25e-003 9.69e+001   0.8 4.45e+001    -  6.09e-003 9.37e-003f  1
  62 3.1152700e+004 6.99e-003 5.00e+003   0.8 1.20e+001    -  2.04e-001 3.86e-002f  1
  63 3.0945997e+004 6.57e-003 2.67e+004   0.8 5.40e+000    -  2.33e-001 6.76e-002f  1
  64 3.0580981e+004 6.52e-003 1.09e+006   0.8 4.02e+000    -  8.05e-001 1.58e-001f  1
  65 3.0572769e+004 6.50e-003 4.64e+007   0.8 3.50e+000    -  3.26e-001 3.89e-003h  1
  66 2.9716339e+004 6.71e-003 9.83e+006   0.8 2.27e+000    -  8.03e-001 6.49e-001H  1
  67 2.9369972e+004 6.80e-003 3.48e+005   0.8 8.59e-001    -  1.00e+000 8.13e-001f  1
  68 2.9374728e+004 6.78e-003 4.12e+007   0.8 1.05e+001    -  3.51e-002 3.17e-003h  1
  69 2.9357232e+004 6.77e-003 1.23e+003   0.8 4.03e-001    -  1.00e+000 1.00e+000h  1
iter    objective    inf_pr   inf_du lg(mu)  ||d||  lg(rg) alpha_du alpha_pr  ls
  70 2.9345621e+004 6.76e-003 1.32e+007  -5.2 1.48e+000    -  3.46e-001 1.23e-001h  1
  71 2.9353920e+004 6.75e-003 1.32e+007   2.6 5.09e+001   1.4 6.91e-004 6.91e-004s 12
  72r2.9353920e+004 6.75e-003 9.96e+002   0.5 0.00e+000    -  0.00e+000 4.82e-007R 13
  73r2.9351784e+004 7.08e-003 2.26e+003  -5.4 5.54e-002    -  8.28e-001 3.20e-001f  1
  74r2.9262936e+004 7.99e-003 5.39e+002  -1.5 1.83e-001    -  9.20e-001 7.73e-001f  1
  75r2.9138315e+004 7.99e-003 1.58e+002  -1.8 2.51e-001    -  9.81e-001 7.25e-001f  1
  76r2.9028467e+004 8.05e-003 3.94e+002  -1.5 6.04e-001    -  3.33e-001 1.00e+000f  1
  77r2.8983924e+004 1.93e-002 5.85e+000  -1.8 8.66e-001    -  1.00e+000 1.00e+000f  1
  78r2.8980507e+004 1.57e-002 3.32e+000  -1.9 2.49e-001    -  9.76e-001 1.00e+000f  1
  79r2.8973596e+004 2.20e-002 3.47e+000  -2.4 3.78e-001    -  9.99e-001 9.85e-001f  1
iter    objective    inf_pr   inf_du lg(mu)  ||d||  lg(rg) alpha_du alpha_pr  ls
  80r2.8974132e+004 1.35e-002 1.37e+000  -2.1 6.67e-001    -  1.00e+000 1.00e+000f  1
  81r2.8972666e+004 1.37e-002 5.03e+001  -2.9 1.07e-001    -  1.00e+000 7.31e-001f  1
  82r2.8972804e+004 1.88e-002 1.36e+001  -3.1 4.95e-001    -  1.00e+000 8.17e-001f  1
  83r2.8972749e+004 2.07e-002 1.24e+001  -3.1 2.23e-001    -  1.00e+000 4.09e-001f  1
  84r2.8978458e+004 1.60e-002 3.63e+000  -3.0 6.76e-001    -  9.32e-001 5.33e-001h  1
  85r2.8986341e+004 2.20e-002 1.80e+000  -3.0 8.36e-001    -  9.07e-001 6.12e-001h  1
  86r2.8987675e+004 2.17e-002 7.38e+000  -3.6 1.44e-001    -  1.00e+000 6.99e-001f  1
  87r2.8990209e+004 2.04e-002 9.73e+000  -4.1 2.66e-001    -  1.00e+000 4.00e-001f  1
  88r2.8994135e+004 1.95e-002 6.50e+000  -3.5 2.47e-001    -  3.62e-001 5.85e-001h  1
  89r2.9000197e+004 1.87e-002 5.16e+000  -3.7 6.09e-001    -  2.10e-001 1.34e-001h  1
iter    objective    inf_pr   inf_du lg(mu)  ||d||  lg(rg) alpha_du alpha_pr  ls
  90r2.9003902e+004 1.80e-002 2.76e+000  -3.7 4.34e-001    -  6.03e-001 3.23e-001f  1
  91r2.9002843e+004 2.82e-002 4.11e+000  -3.4 1.39e+001    -  1.17e-001 5.94e-002h  1
  92r2.8995116e+004 2.62e-002 7.17e+001  -3.7 4.44e-001    -  6.34e-002 3.74e-001h  1
  93r2.8981875e+004 1.95e-002 1.05e+000  -3.4 5.20e-001    -  1.00e+000 1.00e+000f  1
  94r2.8981710e+004 1.94e-002 4.88e-001  -3.5 2.46e-002    -  9.53e-001 1.00e+000h  1
  95r2.8981294e+004 1.97e-002 9.84e+000  -4.9 2.71e-002    -  1.00e+000 5.18e-001f  1
  96r2.8981221e+004 1.92e-002 8.90e+000  -5.0 3.08e-001    -  1.00e+000 1.37e-001f  1
  97r2.8980851e+004 1.96e-002 7.56e+000  -5.7 1.70e-001    -  1.00e+000 2.10e-001f  1
  98r2.8980949e+004 1.98e-002 5.87e+000  -5.6 1.78e-001    -  1.00e+000 2.21e-001f  1
  99r2.8981446e+004 1.99e-002 5.80e+000  -5.7 5.65e-001    -  1.00e+000 8.83e-002f  1
iter    objective    inf_pr   inf_du lg(mu)  ||d||  lg(rg) alpha_du alpha_pr  ls
 100r2.8981750e+004 1.98e-002 3.78e+000  -4.0 5.23e-001    -  1.00e+000 9.17e-002h  1
 101r2.8981797e+004 2.01e-002 2.30e-001  -4.2 7.60e-002    -  1.00e+000 1.00e+000h  1
 102r2.8982673e+004 1.92e-002 4.43e-001  -4.7 8.63e-002    -  1.00e+000 8.60e-001f  1
 103r2.8983164e+004 2.03e-002 1.72e+000  -5.0 4.09e-001    -  1.00e+000 2.23e-001h  1
 104r2.8983332e+004 2.02e-002 4.35e+000  -5.6 1.38e-001    -  1.00e+000 1.81e-001h  1
 105r2.8983340e+004 2.01e-002 1.10e+000  -4.4 3.58e-001    -  1.00e+000 2.47e-001f  1
 106r2.8982462e+004 2.02e-002 1.20e+000  -4.6 1.20e-001    -  6.64e-001 1.00e+000h  1
 107r2.8983311e+004 1.98e-002 1.38e-001  -5.2 7.09e-002    -  1.00e+000 9.12e-001f  1
 108r2.8983488e+004 1.99e-002 1.13e+000  -5.4 1.58e-001    -  1.00e+000 3.04e-001h  1
 109r2.8983683e+004 1.97e-002 1.46e+000  -5.9 3.16e-001    -  1.00e+000 1.57e-001h  1
iter    objective    inf_pr   inf_du lg(mu)  ||d||  lg(rg) alpha_du alpha_pr  ls
 110r2.8984400e+004 2.13e-002 9.15e-001  -4.3 8.18e-001    -  4.47e-001 1.58e-001f  1
 111r2.8981206e+004 2.38e-002 2.46e+000  -4.8 3.78e-001    -  1.26e-001 1.00e+000H  1
 112r2.8981423e+004 2.26e-002 1.95e+000  -4.8 4.38e-001    -  1.50e-001 2.15e-001h  2
 113r2.8982682e+004 2.08e-002 7.08e-001  -4.8 2.37e-001    -  8.07e-001 6.31e-001H  1
 114r2.8983215e+004 2.00e-002 2.30e-001  -4.8 1.40e-001    -  1.00e+000 7.77e-001f  1
 115r2.8983607e+004 1.91e-002 2.10e+000  -4.8 8.88e-002    -  1.86e-001 1.00e+000f  1
 116r2.8983967e+004 2.00e-002 1.47e-001  -4.8 7.47e-002    -  1.00e+000 1.00e+000h  1
 117r2.8983562e+004 1.95e-002 5.30e-001  -4.9 1.22e-001    -  1.00e+000 4.47e-001h  2
 118r2.8983567e+004 1.99e-002 9.24e-002  -5.0 5.13e-002    -  1.00e+000 1.00e+000h  1
 119r2.8983969e+004 2.00e-002 1.53e-001  -6.0 7.66e-002    -  1.00e+000 8.23e-001f  1
iter    objective    inf_pr   inf_du lg(mu)  ||d||  lg(rg) alpha_du alpha_pr  ls
 120r2.8984070e+004 1.95e-002 2.28e+000  -4.6 7.63e-001    -  7.71e-001 7.34e-002f  1
 121r2.8983378e+004 1.90e-002 6.05e+000  -5.0 2.20e-001    -  3.50e-001 1.00e+000h  1
 122r2.8983400e+004 1.97e-002 3.41e+000  -5.0 4.83e-001    -  8.57e-001 4.94e-001h  1
 123r2.8983335e+004 2.06e-002 1.81e-001  -5.0 2.63e-001    -  1.00e+000 1.00e+000h  1
 124r2.8984636e+004 1.95e-002 2.65e+000  -5.0 1.92e-001    -  1.50e-001 5.40e-001H  1
 125r2.8984906e+004 1.98e-002 9.11e-001  -5.0 2.14e-001    -  5.83e-001 6.51e-001f  1
 126r2.8984412e+004 1.96e-002 6.24e-001  -5.0 2.60e-001    -  1.96e-001 2.59e-001f  2
 127r2.8982787e+004 2.25e-002 7.74e-001  -5.0 2.91e-001    -  5.49e-001 9.97e-001H  1
 128r2.8984648e+004 2.02e-002 1.49e-001  -5.0 2.78e-001    -  8.86e-001 9.60e-001f  1
 129r2.8983975e+004 1.96e-002 1.48e-001  -5.0 4.77e-002    -  1.00e+000 1.00e+000h  1
iter    objective    inf_pr   inf_du lg(mu)  ||d||  lg(rg) alpha_du alpha_pr  ls
 130r2.8984101e+004 2.01e-002 7.13e-002  -5.0 6.17e-002    -  1.00e+000 1.00e+000h  1
 131r2.8984131e+004 2.01e-002 8.20e-002  -5.0 6.77e-002    -  1.00e+000 1.00e+000H  1
 132r2.8984087e+004 1.97e-002 2.99e-001  -5.7 6.39e-002    -  1.00e+000 4.35e-001f  1
 133r2.8984147e+004 1.97e-002 1.72e+000  -6.2 2.14e-001    -  1.00e+000 1.23e-001h  1
 134r2.8984423e+004 1.96e-002 1.70e+000  -4.8 5.86e-001    -  1.00e+000 1.87e-001f  1
 135r2.8984143e+004 1.96e-002 1.90e+000  -5.0 2.70e-001    -  2.39e-001 1.00e+000h  1
 136r2.8982974e+004 2.04e-002 1.30e-001  -5.0 2.49e-001    -  1.00e+000 1.00e+000h  1
 137r2.8983331e+004 1.99e-002 3.23e-001  -5.0 1.18e-001    -  7.90e-001 5.69e-001h  1
 138r2.8983465e+004 2.01e-002 2.83e-001  -5.0 1.60e-001    -  7.39e-001 3.31e-001h  1
 139r2.8983532e+004 1.94e-002 2.33e-001  -5.0 5.20e-002    -  1.00e+000 1.00e+000h  1
iter    objective    inf_pr   inf_du lg(mu)  ||d||  lg(rg) alpha_du alpha_pr  ls
 140r2.8984175e+004 2.01e-002 1.30e-001  -5.0 5.23e-002    -  7.23e-001 1.00e+000h  1
 141r2.8984122e+004 2.01e-002 4.43e-001  -5.0 1.53e-001    -  9.48e-001 2.57e-001h  2
 142r2.8984055e+004 1.99e-002 4.49e-001  -5.0 1.99e-001    -  4.12e-001 9.16e-002h  1
 143r2.8984049e+004 1.99e-002 1.42e-002  -5.0 2.11e-002    -  1.00e+000 1.00e+000f  1
 144r2.8984100e+004 1.99e-002 1.46e-001  -5.7 3.96e-002    -  1.00e+000 8.24e-001f  1
 145r2.8984394e+004 1.96e-002 1.29e-001  -5.7 3.19e-001    -  2.23e-001 2.01e-001h  1
 146r2.8984413e+004 1.96e-002 9.82e-001  -5.7 7.32e-001    -  4.24e-001 4.17e-002f  1
 147r2.8984444e+004 1.98e-002 5.83e-001  -5.7 3.48e-001    -  4.91e-001 3.55e-001f  1
 148r2.8984447e+004 1.98e-002 2.98e-001  -5.7 2.17e-001    -  2.85e-001 4.54e-001f  1
 149r2.8984567e+004 2.02e-002 4.95e-001  -5.7 6.00e-001    -  3.34e-001 8.67e-002f  1
iter    objective    inf_pr   inf_du lg(mu)  ||d||  lg(rg) alpha_du alpha_pr  ls
 150r2.8984511e+004 2.01e-002 4.13e-001  -5.7 5.54e-002    -  1.00e+000 3.01e-001h  1
 151r2.8984412e+004 1.99e-002 3.58e-003  -5.7 1.98e-002    -  1.00e+000 1.00e+000h  1
 152r2.8984417e+004 1.98e-002 6.76e-002  -6.9 1.91e-002    -  1.00e+000 8.51e-001f  1
 153r2.8984713e+004 1.97e-002 1.03e+000  -5.1 3.98e-001    -  1.00e+000 2.28e-001f  1
 154r2.8984521e+004 1.97e-002 3.00e+000  -5.4 2.82e-001    -  1.50e-001 1.00e+000h  1
 155r2.8983996e+004 2.06e-002 1.29e+000  -5.4 2.85e-001    -  4.76e-001 5.49e-001h  1
 156r2.8983979e+004 2.06e-002 9.09e-001  -5.4 2.07e-001    -  1.23e-001 8.69e-002h  1
 157r2.8983973e+004 2.05e-002 1.83e+000  -5.4 1.46e-001    -  3.57e-001 2.50e-001h  3
 158r2.8984133e+004 1.91e-002 1.60e+000  -5.4 1.17e-001    -  6.42e-001 1.00e+000h  1
 159r2.8984310e+004 1.93e-002 9.33e-001  -5.4 8.55e-001    -  1.87e-001 6.59e-002h  1
iter    objective    inf_pr   inf_du lg(mu)  ||d||  lg(rg) alpha_du alpha_pr  ls
 160r2.8984288e+004 2.05e-002 6.43e-001  -5.4 9.56e-002    -  2.76e-001 1.00e+000h  1
 161r2.8984339e+004 1.97e-002 8.22e-002  -5.4 7.98e-002    -  1.00e+000 1.00e+000h  1
 162r2.8984280e+004 1.97e-002 8.35e-002  -5.4 4.60e-001    -  1.84e-001 1.31e-001h  3
 163r2.8984278e+004 1.97e-002 4.89e-001  -5.4 8.88e-002    -  1.00e+000 5.38e-002h  5
 164r2.8984286e+004 1.97e-002 4.79e-001  -5.4 8.85e-002    -  1.00e+000 6.25e-002h  5
 165r2.8984287e+004 1.97e-002 4.20e-001  -5.4 1.38e-001    -  6.51e-001 4.04e-003h  8
 166r2.8984287e+004 1.97e-002 4.88e-001  -5.4 8.20e-002    -  1.00e+000 3.39e-003h  9
 167r2.8984291e+004 2.00e-002 3.54e-002  -5.4 3.91e-002    -  1.00e+000 1.00e+000h  1
 168r2.8984361e+004 1.92e-002 1.66e-001  -5.4 9.07e-002    -  1.00e+000 9.11e-001H  1
 169r2.8984295e+004 1.97e-002 5.54e-001  -5.4 9.45e-002    -  2.62e-001 1.00e+000F  1
iter    objective    inf_pr   inf_du lg(mu)  ||d||  lg(rg) alpha_du alpha_pr  ls
 170r2.8984327e+004 1.99e-002 8.14e-001  -5.4 1.41e-001    -  5.34e-001 1.34e-001h  2
 171r2.8984262e+004 1.99e-002 1.84e-002  -5.4 2.63e-002    -  1.00e+000 1.00e+000H  1
 172r2.8984291e+004 1.99e-002 1.05e-001  -6.5 2.07e-002    -  1.00e+000 8.57e-001f  1
 173r2.8984464e+004 1.99e-002 6.23e-001  -6.3 2.95e-001    -  5.54e-001 1.58e-001h  1
 174r2.8984352e+004 1.98e-002 5.89e-001  -6.3 1.13e+000    -  7.18e-002 8.72e-002f  1
 175r2.8984421e+004 1.98e-002 1.54e+000  -6.3 3.04e-001    -  1.00e+000 1.87e-001f  1
 176r2.8984462e+004 1.98e-002 5.75e-001  -6.3 2.39e-001    -  1.00e+000 1.86e-001f  1
 177r2.8984460e+004 2.11e-002 6.46e-001  -6.3 2.07e+000    -  2.07e-001 5.11e-002f  1
 178r2.8984460e+004 2.11e-002 7.00e-001  -6.3 1.01e-001    -  4.30e-001 2.03e-002h  1
 179r2.8984497e+004 2.07e-002 3.46e-001  -6.3 1.15e-001    -  9.75e-001 3.43e-001f  1
iter    objective    inf_pr   inf_du lg(mu)  ||d||  lg(rg) alpha_du alpha_pr  ls
 180r2.8984509e+004 2.04e-002 8.95e-001  -6.3 8.99e-002    -  4.84e-001 2.51e-001h  1
 181r2.8984514e+004 2.04e-002 3.95e-001  -6.3 1.01e-001    -  1.59e-001 8.42e-002f  1
 182r2.8984948e+004 2.04e-002 2.62e+000  -6.3 1.44e+000    -  6.01e-002 1.52e-001f  1
 183r2.8984840e+004 2.02e-002 1.50e+000  -6.3 1.73e-001    -  3.14e-001 4.18e-001f  1
 184r2.8984657e+004 1.99e-002 3.07e-002  -6.3 1.06e-001    -  1.00e+000 9.84e-001h  1
 185r2.8984624e+004 1.99e-002 3.53e-003  -6.3 1.09e-002    -  1.00e+000 1.00e+000h  1
 186r2.8984681e+004 2.00e-002 4.63e-002  -7.3 6.56e-002    -  1.00e+000 5.40e-001h  1
 187r2.8984689e+004 2.00e-002 3.56e-001  -7.8 4.76e-001    -  1.00e+000 7.06e-002h  1
 188r2.8984754e+004 1.98e-002 8.66e-001  -5.8 2.45e+000    -  9.55e-001 3.68e-002h  1
 189r2.8984519e+004 1.67e-002 2.10e+000  -6.2 4.44e-001    -  2.08e-002 1.00e+000h  1
iter    objective    inf_pr   inf_du lg(mu)  ||d||  lg(rg) alpha_du alpha_pr  ls
 190r2.8984597e+004 2.00e-002 4.96e-001  -6.2 4.20e-001    -  5.19e-001 1.00e+000h  1
 191r2.8984622e+004 2.00e-002 3.16e-001  -6.2 3.59e-002    -  5.38e-001 1.00e+000h  1
 192r2.8984518e+004 1.94e-002 1.77e-001  -6.2 1.40e-001    -  2.40e-001 1.00e+000h  1
 193r2.8984593e+004 1.98e-002 1.45e-001  -6.2 6.64e-002    -  4.76e-001 1.00e+000h  1
 194r2.8984588e+004 1.99e-002 2.56e-001  -6.2 5.42e-001    -  3.31e-001 3.50e-002h  3
 195r2.8984603e+004 1.98e-002 2.45e-001  -6.2 4.69e-001    -  5.22e-001 6.02e-002h  4
 196r2.8984463e+004 2.01e-002 2.23e-001  -6.2 1.23e+000    -  9.30e-002 1.01e-001h  2
 197r2.8984553e+004 1.98e-002 4.35e-002  -6.2 1.24e-001    -  7.18e-001 1.00e+000H  1
 198r2.8984579e+004 1.98e-002 8.24e-002  -6.2 1.44e+000    -  6.92e-002 1.69e-002h  2
 199r2.8984542e+004 1.98e-002 7.70e-002  -6.2 1.67e-001    -  3.48e-001 1.00e+000H  1
iter    objective    inf_pr   inf_du lg(mu)  ||d||  lg(rg) alpha_du alpha_pr  ls
 200r2.8984867e+004 2.14e-002 3.70e-001  -9.0 1.07e+000    -  1.56e-001 1.86e-001h  1
 201r2.8984877e+004 2.14e-002 1.54e+000  -6.3 1.74e+000    -  1.30e-001 9.89e-003h  1
 202r2.8985129e+004 2.09e-002 8.09e-001  -6.3 9.57e-001    -  5.47e-001 2.30e-001f  1
 203r2.8984888e+004 2.04e-002 1.21e+000  -6.3 3.65e+000    -  8.83e-003 1.02e-001f  1
 204r2.8984899e+004 2.03e-002 5.86e-001  -6.3 2.18e-001    -  2.21e-001 1.24e-001h  1
 205r2.8984662e+004 2.00e-002 5.81e-001  -6.3 3.11e-001    -  2.03e-001 6.09e-001h  1
 206r2.8984649e+004 2.00e-002 7.28e-001  -6.3 1.40e-001    -  6.82e-001 1.49e-001h  1
 207r2.8984646e+004 1.99e-002 8.87e-002  -6.3 4.98e-002    -  8.75e-001 8.78e-001h  1
 208r2.8984643e+004 1.99e-002 9.98e-002  -6.3 1.08e-001    -  4.80e-001 6.25e-002f  5
 209r2.8984566e+004 1.99e-002 3.06e-002  -6.3 1.72e-001    -  1.00e+000 8.50e-001H  1
iter    objective    inf_pr   inf_du lg(mu)  ||d||  lg(rg) alpha_du alpha_pr  ls
 210r2.8984612e+004 1.98e-002 6.81e-001  -6.3 8.55e-002    -  3.51e-001 1.00e+000f  1
 211r2.8984698e+004 2.05e-002 1.87e-001  -6.3 1.02e-001    -  4.80e-001 1.00e+000H  1
 212r2.8984665e+004 2.01e-002 4.21e-002  -6.3 1.32e-001    -  3.88e-001 6.32e-001h  1
 213r2.8984667e+004 2.00e-002 3.42e-002  -6.3 2.07e-001    -  2.37e-001 2.02e-001f  1
 214r2.8984621e+004 2.00e-002 1.21e-001  -6.3 1.00e-001    -  1.00e+000 2.50e-001f  3
 215r2.8984611e+004 1.98e-002 1.53e-001  -6.3 9.85e-002    -  6.21e-001 3.98e-001h  2
 216r2.8984644e+004 1.99e-002 6.06e-001  -6.3 6.81e-002    -  4.79e-001 1.00e+000h  1
 217r2.8984617e+004 2.00e-002 1.91e-002  -6.3 4.66e-002    -  1.00e+000 1.00e+000h  1
 218r2.8984582e+004 1.98e-002 9.52e-003  -6.3 8.39e-002    -  1.00e+000 1.00e+000h  1
 219r2.8984636e+004 1.99e-002 9.31e-003  -6.1 8.12e-002    -  1.00e+000 1.00e+000h  1
iter    objective    inf_pr   inf_du lg(mu)  ||d||  lg(rg) alpha_du alpha_pr  ls
 220r2.8984668e+004 2.02e-002 6.88e-002  -6.2 2.04e+000    -  3.88e-002 4.07e-002h  4
 221r2.8984395e+004 1.99e-002 7.70e-002  -6.2 1.93e+000    -  6.79e-002 1.03e-001h  2
 222r2.8984473e+004 2.01e-002 1.20e-001  -6.2 1.90e-001    -  2.45e-001 3.93e-001h  1
 223r2.8984585e+004 1.97e-002 2.79e-001  -6.2 4.29e-001    -  2.28e-002 3.58e-001f  1
 224r2.8984595e+004 1.97e-002 3.43e-001  -6.2 4.66e-001    -  3.17e-001 3.71e-002f  1
 225r2.8984566e+004 2.00e-002 1.13e+000  -6.2 2.20e+000    -  2.18e-002 7.23e-002f  1
 226r2.8984613e+004 1.98e-002 6.44e-001  -6.2 3.28e-001    -  3.11e-001 3.33e-001H  1
 227r2.8984599e+004 2.00e-002 6.24e-001  -6.2 9.17e-002    -  1.32e-001 1.00e+000h  1
 228r2.8984548e+004 1.98e-002 3.01e+000  -6.2 1.29e+000    -  4.08e-001 4.29e-002h  3
 229r2.8984510e+004 1.98e-002 1.43e+000  -6.2 1.37e-001    -  3.98e-001 5.55e-001h  1
iter    objective    inf_pr   inf_du lg(mu)  ||d||  lg(rg) alpha_du alpha_pr  ls
 230r2.8984497e+004 1.99e-002 1.14e-001  -6.2 1.62e-001    -  5.23e-001 3.92e-001f  1
 231r2.8984589e+004 1.99e-002 7.74e-002  -6.2 1.78e-001    -  2.67e-001 2.94e-001f  2
 232r2.8984646e+004 1.98e-002 2.67e-002  -6.2 8.61e-002    -  1.00e+000 1.00e+000H  1
 233r2.8984619e+004 1.99e-002 3.25e-002  -6.2 2.55e-001    -  2.45e-001 3.50e-001h  1
 234r2.8984592e+004 1.98e-002 7.28e-002  -6.2 2.60e-001    -  4.74e-001 2.48e-001f  2
 235r2.8984528e+004 1.98e-002 5.59e-002  -6.2 9.74e-002    -  1.00e+000 4.69e-001h  2
 236r2.8984542e+004 1.99e-002 1.43e-001  -6.2 3.92e-001    -  2.57e-001 1.48e-001h  2
 237r2.8984601e+004 1.99e-002 2.09e-001  -6.2 6.58e-002    -  6.97e-001 1.00e+000h  1
 238r2.8984639e+004 1.98e-002 5.11e-002  -6.2 1.69e-001    -  3.76e-001 5.59e-001H  1
 239r2.8984612e+004 1.98e-002 2.29e-001  -6.2 1.44e-001    -  9.38e-001 1.37e-001f  3
iter    objective    inf_pr   inf_du lg(mu)  ||d||  lg(rg) alpha_du alpha_pr  ls
 240r2.8984614e+004 1.97e-002 1.99e-001  -6.2 5.93e-001    -  1.31e-001 6.96e-002h  3
 241r2.8984575e+004 1.99e-002 2.98e-001  -6.2 1.07e+000    -  1.25e-001 6.91e-002h  2
 242r2.8984580e+004 1.99e-002 9.03e-002  -6.2 5.94e-002    -  7.59e-001 8.09e-001h  1
 243r2.8984775e+004 1.95e-002 2.74e-001  -6.2 2.17e-001    -  1.00e+000 6.11e-001F  1
 244r2.8985294e+004 2.00e-002 5.34e-001  -6.2 9.31e-002    -  1.38e-001 1.00e+000f  1
 245r2.8985120e+004 1.99e-002 4.24e-001  -6.2 3.26e-001    -  3.55e-001 2.43e-001h  1
 246r2.8984844e+004 1.99e-002 1.89e-001  -6.2 9.91e-002    -  9.27e-001 5.00e-001h  2
 247r2.8984590e+004 2.02e-002 4.29e-001  -6.2 3.11e-001    -  1.00e+000 3.98e-001h  1
 248r2.8984511e+004 1.97e-002 6.66e-001  -6.2 2.39e-001    -  3.09e-001 7.22e-001h  1
 249r2.8985250e+004 1.97e-002 1.82e+000  -6.2 4.28e-001    -  1.11e-001 7.78e-001F  1
iter    objective    inf_pr   inf_du lg(mu)  ||d||  lg(rg) alpha_du alpha_pr  ls
 250r2.8985217e+004 1.99e-002 1.04e+000  -6.2 1.11e+000    -  2.56e-001 3.99e-001f  1
 251r2.8985026e+004 1.98e-002 9.54e-001  -6.2 3.61e-001    -  2.50e-001 1.20e-001h  2
 252r2.8984807e+004 1.99e-002 5.21e-001  -6.2 2.88e-001    -  1.00e+000 5.00e-001h  2
 253r2.8984735e+004 1.99e-002 4.99e-001  -6.2 1.85e-001    -  9.09e-001 3.53e-001h  1
 254r2.8984724e+004 1.96e-002 1.22e+000  -6.2 1.94e-001    -  1.92e-001 7.87e-001h  1
 255r2.8984655e+004 1.98e-002 1.08e+000  -6.2 5.30e-001    -  9.72e-002 1.10e-001f  3
 256r2.8984631e+004 1.99e-002 1.02e+000  -6.2 1.35e+000    -  1.16e-002 4.19e-002h  1
 257r2.8984609e+004 1.99e-002 9.15e-001  -6.2 3.80e-001    -  3.74e-001 1.39e-001f  2
 258r2.8984502e+004 1.98e-002 1.11e+000  -6.2 2.96e-001    -  5.70e-001 1.45e-001h  2
 259r2.8984580e+004 1.99e-002 4.97e-001  -6.2 2.46e-001    -  5.51e-001 3.86e-001h  1
iter    objective    inf_pr   inf_du lg(mu)  ||d||  lg(rg) alpha_du alpha_pr  ls
 260r2.8984654e+004 1.99e-002 2.32e-001  -6.2 3.29e-001    -  3.54e-002 3.70e-001f  2
 261r2.8984647e+004 1.99e-002 2.97e-001  -6.2 5.44e-001    -  2.87e-001 4.16e-002h  3
 262r2.8984632e+004 2.00e-002 3.61e-001  -6.2 6.13e-001    -  1.74e-001 1.62e-002h  6
 263r2.8984669e+004 2.00e-002 3.17e-001  -6.2 2.41e-001    -  1.46e-001 4.59e-001h  1
 264r2.8984682e+004 1.99e-002 1.72e-001  -6.2 7.59e-001    -  3.29e-001 5.80e-002f  3
 265r2.8984512e+004 1.97e-002 1.81e-001  -6.2 1.14e-001    -  1.00e+000 4.42e-001h  1
 266r2.8984614e+004 1.99e-002 1.44e-002  -6.2 7.44e-002    -  1.00e+000 1.00e+000h  1
 267r2.8984673e+004 1.99e-002 1.31e-001  -6.2 1.87e-001    -  2.79e-001 1.00e+000H  1
 268r2.8984667e+004 1.99e-002 3.25e-001  -6.2 1.64e-001    -  2.01e-001 4.94e-002h  5
 269r2.8984644e+004 2.00e-002 2.78e-001  -6.2 1.34e+000    -  6.86e-002 7.65e-003h  4
iter    objective    inf_pr   inf_du lg(mu)  ||d||  lg(rg) alpha_du alpha_pr  ls
 270r2.8984639e+004 2.00e-002 2.55e-001  -6.2 4.88e+000    -  2.14e-002 2.28e-003h  1
 271r2.8984634e+004 2.00e-002 3.54e-001  -6.2 2.17e+000    -  2.76e-001 4.73e-003f  4
 272r2.8984645e+004 2.00e-002 6.79e-002  -6.2 5.11e-001    -  9.72e-002 3.91e-002h  4
 273r2.8984643e+004 2.00e-002 7.06e-002  -6.2 2.04e+000    -  4.60e-002 5.85e-004h  8
 274r2.8984643e+004 2.00e-002 4.32e-001  -6.2 2.72e+000    -  3.13e-001 2.32e-003h  7
 275r2.8984527e+004 1.98e-002 3.36e-001  -6.2 1.29e-001    -  4.71e-001 1.00e+000H  1
 276r2.8984505e+004 1.99e-002 3.79e-001  -6.2 5.22e-001    -  1.61e-001 1.69e-002h  5
 277r2.8984507e+004 1.99e-002 4.19e-001  -6.2 1.95e+000    -  6.45e-002 5.43e-003h  5
 278r2.8984505e+004 1.99e-002 5.33e-001  -6.2 6.98e-001    -  5.59e-001 1.97e-002h  2
 279r2.8984547e+004 1.99e-002 2.94e-001  -6.2 8.89e-001    -  4.33e-001 5.79e-002h  2
iter    objective    inf_pr   inf_du lg(mu)  ||d||  lg(rg) alpha_du alpha_pr  ls
 280r2.8984541e+004 1.99e-002 3.12e-001  -6.2 2.00e+000    -  1.02e-001 3.45e-003h  6
 281r2.8984609e+004 1.99e-002 9.86e-002  -6.2 1.42e-001    -  3.61e-001 9.97e-001H  1
 282r2.8985496e+004 2.03e-002 1.22e+001  -6.2 3.50e-001    -  3.61e-001 1.00e+000F  1
 283r2.8985536e+004 1.98e-002 8.85e+000  -6.2 3.96e-001    -  2.15e-001 2.52e-001h  2
 284r2.8985217e+004 2.00e-002 8.68e+000  -6.2 6.20e+000    -  4.18e-002 4.55e-002h  1
 285r2.8985164e+004 2.00e-002 7.34e+000  -6.2 9.81e-001    -  6.09e-001 7.20e-002h  2
 286r2.8985162e+004 2.00e-002 9.46e+000  -6.2 1.17e-001    -  3.74e-001 4.13e-003h  8
 287r2.8984757e+004 2.00e-002 2.60e+000  -6.2 8.38e-002    -  9.63e-001 8.10e-001h  1
 288r2.8984706e+004 1.99e-002 2.21e+000  -6.2 4.19e-001    -  1.39e-001 8.95e-002h  3
 289r2.8984583e+004 1.99e-002 7.88e-003  -6.2 1.92e-002    -  1.00e+000 1.00e+000h  1
iter    objective    inf_pr   inf_du lg(mu)  ||d||  lg(rg) alpha_du alpha_pr  ls
 290r2.8984580e+004 1.99e-002 4.33e-003  -6.2 2.18e-002    -  1.00e+000 1.00e+000h  1
 291r2.8984561e+004 2.01e-002 3.93e-002  -6.2 1.05e-001    -  1.00e+000 1.00e+000H  1
 292r2.8984578e+004 2.00e-002 3.45e-002  -6.4 9.31e-002    -  1.00e+000 3.23e-001h  1
 293r2.8984562e+004 2.00e-002 1.48e-001  -6.4 1.23e+000    -  1.30e-001 1.23e-002h  1
 294r2.8984666e+004 1.99e-002 3.35e-002  -6.4 1.45e-001    -  1.00e+000 7.59e-001f  1
 295r2.8984711e+004 2.01e-002 2.13e-001  -6.4 9.16e-001    -  1.64e-001 2.57e-001f  1
 296r2.8984594e+004 1.99e-002 3.03e-002  -6.4 1.46e-001    -  7.03e-001 8.62e-001f  1
 297r2.8984642e+004 1.97e-002 2.53e+000  -6.4 5.95e-002    -  1.53e-002 5.90e-001f  1
 298r2.8984643e+004 1.99e-002 2.39e-003  -6.4 2.90e-002    -  1.00e+000 1.00e+000h  1
 299r2.8984652e+004 1.99e-002 6.68e-003  -6.4 3.50e-002    -  1.00e+000 1.00e+000h  1
iter    objective    inf_pr   inf_du lg(mu)  ||d||  lg(rg) alpha_du alpha_pr  ls
 300r2.8984673e+004 1.99e-002 2.65e-002  -7.3 2.64e-002    -  1.00e+000 8.51e-001h  1

Number of Iterations....: 300

                                   (scaled)                 (unscaled)
Objective...............:  1.4459878525043246e+002   2.8984673195175779e+004
Dual infeasibility......:  1.0000001130067317e+002   2.0044896241998191e+004
Constraint violation....:  1.9904496254877387e-002   1.9904496254877387e-002
Complementarity.........:  1.6645043474271131e-007   3.3364813168082899e-005
Overall NLP error.......:  1.0000001130067317e+002   2.0044896241998191e+004


Number of objective function evaluations             = 604
Number of objective gradient evaluations             = 74
Number of equality constraint evaluations            = 604
Number of inequality constraint evaluations          = 604
Number of equality constraint Jacobian evaluations   = 304
Number of inequality constraint Jacobian evaluations = 304
Number of Lagrangian Hessian evaluations             = 0
Total CPU secs in IPOPT (w/o function evaluations)   =      5.946
Total CPU secs in NLP function evaluations           =     18.060

EXIT: Maximum Number of Iterations Exceeded.
